proyfinal/src/viki/013/experimentInOfficeAgust.take6.output/8e27344d-64f9-4a6f-84f4-7ef7f36b183d.als.dat
{'cnf.clauses': '118081',
 'cnf.totvars': '69608',
 'conflict literals': '2605',
 'conflicts': '263',
 'decisions': '9351',
 'memused.mb': '15.81',
 'outcome': 'UNSAT',
 'propagations': '343693',
 'restarts': '3',
 'solver.msecs': 57,
 'task.msecs': 119}
